p tw 225 47251 2 
1 3 
1 4 
1 5 
1 6 
1 7 
1 8 
1 9 
1 10 
1 11 
1 12 
1 13 
1 14 
1 15 
1 16 
1 20 
1 31 
1 34 
1 46 
1 48 
1 61 
1 62 
1 76 
1 81 
1 91 
1 105 
1 106 
1 117 
1 121 
1 127 
1 136 
1 149 
1 151 
1 161 
1 166 
1 178 
1 181 
1 189 
1 196 
1 203 
1 211 
1 220 
2 3 
2 4 
2 5 
2 6 
2 7 
2 8 
2 9 
2 10 
2 11 
2 12 
2 13 
2 14 
2 15 
2 17 
2 19 
2 32 
2 33 
2 47 
2 58 
2 62 
2 68 
2 77 
2 89 
2 92 
2 100 
2 106 
2 107 
2 122 
2 125 
2 137 
2 144 
2 152 
2 165 
2 167 
2 172 
2 182 
2 191 
2 197 
2 207 
2 212 
2 216 
3 4 
3 5 
3 6 
3 7 
3 8 
3 9 
3 10 
3 11 
3 12 
3 13 
3 14 
3 15 
3 18 
3 29 
3 33 
3 41 
3 46 
3 48 
3 63 
3 65 
3 78 
3 82 
3 93 
3 99 
3 108 
3 113 
3 123 
3 132 
3 138 
3 150 
3 153 
3 160 
3 168 
3 169 
3 183 
3 186 
3 197 
3 198 
3 213 
3 223 
4 5 
4 6 
4 7 
4 8 
4 9 
4 10 
4 11 
4 12 
4 13 
4 14 
4 15 
4 19 
4 25 
4 34 
4 44 
4 49 
4 50 
4 63 
4 64 
4 79 
4 86 
4 94 
4 96 
4 109 
4 120 
4 122 
4 124 
4 139 
4 147 
4 154 
4 159 
4 169 
4 173 
4 184 
4 193 
4 199 
4 202 
4 211 
4 214 
5 6 
5 7 
5 8 
5 9 
5 10 
5 11 
5 12 
5 13 
5 14 
5 15 
5 20 
5 24 
5 35 
5 38 
5 47 
5 50 
5 65 
5 66 
5 80 
5 90 
5 94 
5 95 
5 110 
5 116 
5 125 
5 130 
5 140 
5 148 
5 151 
5 155 
5 170 
5 179 
5 185 
5 187 
5 198 
5 200 
5 215 
5 222 
6 7 
6 8 
6 9 
6 10 
6 11 
6 12 
6 13 
6 14 
6 15 
6 21 
6 26 
6 36 
6 37 
6 51 
6 55 
6 66 
6 69 
6 77 
6 81 
6 96 
6 103 
6 110 
6 111 
6 123 
6 126 
6 139 
6 141 
6 156 
6 162 
6 166 
6 171 
6 186 
6 195 
6 201 
6 209 
6 216 
6 218 
7 8 
7 9 
7 10 
7 11 
7 12 
7 13 
7 14 
7 15 
7 16 
7 22 
7 37 
7 45 
7 52 
7 56 
7 67 
7 73 
7 82 
7 87 
7 97 
7 104 
7 112 
7 115 
7 127 
7 129 
7 142 
7 143 
7 152 
7 157 
7 171 
7 172 
7 185 
7 187 
7 199 
7 202 
7 213 
7 217 
8 9 
8 10 
8 11 
8 12 
8 13 
8 14 
8 15 
8 22 
8 23 
8 36 
8 38 
8 53 
8 60 
8 68 
8 71 
8 78 
8 83 
8 92 
8 98 
8 113 
8 119 
8 121 
8 128 
8 140 
8 143 
8 158 
8 163 
8 173 
8 177 
8 184 
8 188 
8 203 
8 205 
8 218 
8 219 
9 10 
9 11 
9 12 
9 13 
9 14 
9 15 
9 23 
9 24 
9 39 
9 43 
9 51 
9 54 
9 69 
9 72 
9 79 
9 84 
9 95 
9 99 
9 107 
9 114 
9 129 
9 135 
9 136 
9 144 
9 159 
9 164 
9 174 
9 175 
9 183 
9 189 
9 204 
9 206 
9 217 
9 219 
10 11 
10 12 
10 13 
10 14 
10 15 
10 25 
10 30 
10 40 
10 42 
10 52 
10 55 
10 64 
10 70 
10 76 
10 85 
10 100 
10 101 
10 115 
10 118 
10 128 
10 130 
10 138 
10 145 
10 156 
10 160 
10 170 
10 175 
10 190 
10 194 
10 204 
10 205 
10 212 
10 220 
11 12 
11 13 
11 14 
11 15 
11 18 
11 26 
11 39 
11 41 
11 53 
11 56 
11 67 
11 71 
11 85 
11 86 
11 101 
11 102 
11 109 
11 116 
11 131 
11 133 
11 137 
11 146 
11 155 
11 161 
11 176 
11 180 
11 181 
11 191 
11 201 
11 206 
11 221 
11 224 
12 13 
12 14 
12 15 
12 21 
12 27 
12 32 
12 42 
12 49 
12 57 
12 72 
12 75 
12 80 
12 87 
12 91 
12 102 
12 114 
12 117 
12 132 
12 134 
12 145 
12 147 
12 157 
12 162 
12 168 
12 177 
12 188 
12 192 
12 207 
12 208 
12 221 
12 222 
13 14 
13 15 
13 27 
13 28 
13 31 
13 43 
13 54 
13 58 
13 73 
13 74 
13 83 
13 88 
13 97 
13 103 
13 111 
13 118 
13 124 
13 133 
13 146 
13 148 
13 153 
13 163 
13 167 
13 178 
13 190 
13 193 
13 208 
13 210 
13 215 
13 223 
14 15 
14 28 
14 29 
14 35 
14 44 
14 57 
14 59 
14 70 
14 74 
14 84 
14 89 
14 98 
14 104 
14 108 
14 119 
14 126 
14 134 
14 142 
14 149 
14 154 
14 164 
14 176 
14 179 
14 182 
14 194 
14 196 
14 209 
14 224 
14 225 
15 17 
15 30 
15 40 
15 45 
15 59 
15 60 
15 61 
15 75 
15 88 
15 90 
15 93 
15 105 
15 112 
15 120 
15 131 
15 135 
15 141 
15 150 
15 158 
15 165 
15 174 
15 180 
15 192 
15 195 
15 200 
15 210 
15 214 
15 225 
16 17 
16 18 
16 19 
16 20 
16 21 
16 22 
16 23 
16 24 
16 25 
16 26 
16 27 
16 28 
16 29 
16 30 
16 31 
16 45 
16 46 
16 56 
16 61 
16 73 
16 76 
16 87 
16 91 
16 104 
16 106 
16 115 
16 121 
16 129 
16 136 
16 143 
16 151 
16 152 
16 166 
16 171 
16 181 
16 185 
16 196 
16 199 
16 211 
16 213 
17 18 
17 19 
17 20 
17 21 
17 22 
17 23 
17 24 
17 25 
17 26 
17 27 
17 28 
17 29 
17 30 
17 32 
17 40 
17 47 
17 59 
17 61 
17 62 
17 77 
17 88 
17 92 
17 93 
17 107 
17 112 
17 122 
17 131 
17 137 
17 141 
17 152 
17 158 
17 167 
17 174 
17 182 
17 192 
17 197 
17 200 
17 212 
17 214 
18 19 
18 20 
18 21 
18 22 
18 23 
18 24 
18 25 
18 26 
18 27 
18 28 
18 29 
18 30 
18 33 
18 39 
18 48 
18 53 
18 63 
18 67 
18 78 
18 85 
18 93 
18 102 
18 108 
18 109 
18 123 
18 133 
18 137 
18 138 
18 153 
18 155 
18 168 
18 180 
18 181 
18 183 
18 198 
18 201 
18 213 
18 224 
19 20 
19 21 
19 22 
19 23 
19 24 
19 25 
19 26 
19 27 
19 28 
19 29 
19 30 
19 33 
19 34 
19 49 
19 58 
19 64 
19 68 
19 79 
19 89 
19 94 
19 100 
19 106 
19 109 
19 124 
19 125 
19 139 
19 144 
19 154 
19 165 
19 169 
19 172 
19 184 
19 191 
19 199 
19 207 
19 214 
19 216 
20 21 
20 22 
20 23 
20 24 
20 25 
20 26 
20 27 
20 28 
20 29 
20 30 
20 34 
20 35 
20 48 
20 50 
20 62 
20 65 
20 80 
20 81 
20 95 
20 105 
20 110 
20 117 
20 125 
20 127 
20 140 
20 149 
20 155 
20 161 
20 170 
20 178 
20 185 
20 189 
20 200 
20 203 
20 215 
20 220 
21 22 
21 23 
21 24 
21 25 
21 26 
21 27 
21 28 
21 29 
21 30 
21 32 
21 36 
21 49 
21 51 
21 66 
21 75 
21 80 
21 81 
21 91 
21 96 
21 111 
21 114 
21 126 
21 134 
21 141 
21 145 
21 156 
21 157 
21 168 
21 171 
21 186 
21 188 
21 201 
21 208 
21 216 
21 221 
22 23 
22 24 
22 25 
22 26 
22 27 
22 28 
22 29 
22 30 
22 36 
22 37 
22 52 
22 60 
22 67 
22 71 
22 78 
22 82 
22 92 
22 97 
22 112 
22 119 
22 121 
22 127 
22 140 
22 142 
22 157 
22 163 
22 172 
22 177 
22 184 
22 187 
22 202 
22 205 
22 217 
22 219 
23 24 
23 25 
23 26 
23 27 
23 28 
23 29 
23 30 
23 38 
23 43 
23 51 
23 53 
23 68 
23 72 
23 79 
23 83 
23 95 
23 98 
23 107 
23 113 
23 128 
23 135 
23 136 
23 143 
23 158 
23 164 
23 173 
23 175 
23 183 
23 188 
23 203 
23 206 
23 217 
23 218 
24 25 
24 26 
24 27 
24 28 
24 29 
24 30 
24 38 
24 39 
24 47 
24 54 
24 66 
24 69 
24 84 
24 90 
24 94 
24 99 
24 114 
24 116 
24 129 
24 130 
24 144 
24 148 
24 151 
24 159 
24 174 
24 179 
24 187 
24 189 
24 198 
24 204 
24 219 
24 222 
25 26 
25 27 
25 28 
25 29 
25 30 
25 40 
25 44 
25 50 
25 55 
25 63 
25 70 
25 85 
25 86 
25 96 
25 100 
25 115 
25 120 
25 122 
25 130 
25 145 
25 147 
25 159 
25 160 
25 173 
25 175 
25 190 
25 193 
25 202 
25 205 
25 211 
25 220 
26 27 
26 28 
26 29 
26 30 
26 37 
26 41 
26 55 
26 56 
26 69 
26 71 
26 77 
26 86 
26 101 
26 103 
26 110 
26 116 
26 123 
26 131 
26 139 
26 146 
26 161 
26 162 
26 166 
26 176 
26 191 
26 195 
26 206 
26 209 
26 218 
26 221 
27 28 
27 29 
27 30 
27 31 
27 42 
27 54 
27 57 
27 72 
27 74 
27 83 
27 87 
27 97 
27 102 
27 111 
27 117 
27 124 
27 132 
27 146 
27 147 
27 153 
27 162 
27 167 
27 177 
27 190 
27 192 
27 207 
27 210 
27 215 
27 222 
28 29 
28 30 
28 35 
28 43 
28 57 
28 58 
28 70 
28 73 
28 84 
28 88 
28 98 
28 103 
28 108 
28 118 
28 126 
28 133 
28 142 
28 148 
28 154 
28 163 
28 176 
28 178 
28 182 
28 193 
28 196 
28 208 
28 223 
28 225 
29 30 
29 41 
29 44 
29 46 
29 59 
29 65 
29 74 
29 82 
29 89 
29 99 
29 104 
29 113 
29 119 
29 132 
29 134 
29 149 
29 150 
29 160 
29 164 
29 169 
29 179 
29 186 
29 194 
29 197 
29 209 
29 223 
29 224 
30 42 
30 45 
30 52 
30 60 
30 64 
30 75 
30 76 
30 90 
30 101 
30 105 
30 118 
30 120 
30 128 
30 135 
30 138 
30 150 
30 156 
30 165 
30 170 
30 180 
30 194 
30 195 
30 204 
30 210 
30 212 
30 225 
31 32 
31 33 
31 34 
31 35 
31 36 
31 37 
31 38 
31 39 
31 40 
31 41 
31 42 
31 43 
31 44 
31 45 
31 46 
31 54 
31 61 
31 74 
31 76 
31 83 
31 91 
31 97 
31 106 
31 111 
31 121 
31 124 
31 136 
31 146 
31 151 
31 153 
31 166 
31 167 
31 181 
31 190 
31 196 
31 210 
31 211 
31 215 
32 33 
32 34 
32 35 
32 36 
32 37 
32 38 
32 39 
32 40 
32 41 
32 42 
32 43 
32 44 
32 45 
32 47 
32 49 
32 62 
32 75 
32 77 
32 80 
32 91 
32 92 
32 107 
32 114 
32 122 
32 134 
32 137 
32 145 
32 152 
32 157 
32 167 
32 168 
32 182 
32 188 
32 197 
32 208 
32 212 
32 221 
33 34 
33 35 
33 36 
33 37 
33 38 
33 39 
33 40 
33 41 
33 42 
33 43 
33 44 
33 45 
33 48 
33 58 
33 63 
33 68 
33 78 
33 89 
33 93 
33 100 
33 106 
33 108 
33 123 
33 125 
33 138 
33 144 
33 153 
33 165 
33 168 
33 172 
33 183 
33 191 
33 198 
33 207 
33 213 
33 216 
34 35 
34 36 
34 37 
34 38 
34 39 
34 40 
34 41 
34 42 
34 43 
34 44 
34 45 
34 48 
34 49 
34 62 
34 64 
34 79 
34 81 
34 94 
34 105 
34 109 
34 117 
34 124 
34 127 
34 139 
34 149 
34 154 
34 161 
34 169 
34 178 
34 184 
34 189 
34 199 
34 203 
34 214 
34 220 
35 36 
35 37 
35 38 
35 39 
35 40 
35 41 
35 42 
35 43 
35 44 
35 45 
35 50 
35 57 
35 65 
35 70 
35 80 
35 84 
35 95 
35 98 
35 108 
35 110 
35 125 
35 126 
35 140 
35 142 
35 154 
35 155 
35 170 
35 176 
35 182 
35 185 
35 196 
35 200 
35 215 
35 225 
36 37 
36 38 
36 39 
36 40 
36 41 
36 42 
36 43 
36 44 
36 45 
36 51 
36 60 
36 66 
36 71 
36 78 
36 81 
36 92 
36 96 
36 111 
36 119 
36 121 
36 126 
36 140 
36 141 
36 156 
36 163 
36 171 
36 177 
36 184 
36 186 
36 201 
36 205 
36 216 
36 219 
37 38 
37 39 
37 40 
37 41 
37 42 
37 43 
37 44 
37 45 
37 52 
37 55 
37 67 
37 69 
37 77 
37 82 
37 97 
37 103 
37 110 
37 112 
37 123 
37 127 
37 139 
37 142 
37 157 
37 162 
37 166 
37 172 
37 187 
37 195 
37 202 
37 209 
37 217 
37 218 
38 39 
38 40 
38 41 
38 42 
38 43 
38 44 
38 45 
38 47 
38 53 
38 66 
38 68 
38 83 
38 90 
38 94 
38 98 
38 113 
38 116 
38 128 
38 130 
38 143 
38 148 
38 151 
38 158 
38 173 
38 179 
38 187 
38 188 
38 198 
38 203 
38 218 
38 222 
39 40 
39 41 
39 42 
39 43 
39 44 
39 45 
39 53 
39 54 
39 67 
39 69 
39 84 
39 85 
39 99 
39 102 
39 109 
39 114 
39 129 
39 133 
39 137 
39 144 
39 155 
39 159 
39 174 
39 180 
39 181 
39 189 
39 201 
39 204 
39 219 
39 224 
40 41 
40 42 
40 43 
40 44 
40 45 
40 55 
40 59 
40 61 
40 70 
40 85 
40 88 
40 93 
40 100 
40 112 
40 115 
40 130 
40 131 
40 141 
40 145 
40 158 
40 160 
40 174 
40 175 
40 190 
40 192 
40 200 
40 205 
40 214 
40 220 
41 42 
41 43 
41 44 
41 45 
41 46 
41 56 
41 65 
41 71 
41 82 
41 86 
41 99 
41 101 
41 113 
41 116 
41 131 
41 132 
41 146 
41 150 
41 160 
41 161 
41 169 
41 176 
41 186 
41 191 
41 197 
41 206 
41 221 
41 223 
42 43 
42 44 
42 45 
42 52 
42 57 
42 64 
42 72 
42 76 
42 87 
42 101 
42 102 
42 117 
42 118 
42 128 
42 132 
42 138 
42 147 
42 156 
42 162 
42 170 
42 177 
42 192 
42 194 
42 204 
42 207 
42 212 
42 222 
43 44 
43 45 
43 51 
43 58 
43 72 
43 73 
43 79 
43 88 
43 95 
43 103 
43 107 
43 118 
43 133 
43 135 
43 136 
43 148 
43 163 
43 164 
43 175 
43 178 
43 183 
43 193 
43 206 
43 208 
43 217 
43 223 
44 45 
44 50 
44 59 
44 63 
44 74 
44 86 
44 89 
44 96 
44 104 
44 119 
44 120 
44 122 
44 134 
44 147 
44 149 
44 159 
44 164 
44 173 
44 179 
44 193 
44 194 
44 202 
44 209 
44 211 
44 224 
45 56 
45 60 
45 73 
45 75 
45 87 
45 90 
45 104 
45 105 
45 115 
45 120 
45 129 
45 135 
45 143 
45 150 
45 152 
45 165 
45 171 
45 180 
45 185 
45 195 
45 199 
45 210 
45 213 
45 225 
46 47 
46 48 
46 49 
46 50 
46 51 
46 52 
46 53 
46 54 
46 55 
46 56 
46 57 
46 58 
46 59 
46 60 
46 61 
46 65 
46 76 
46 82 
46 91 
46 99 
46 106 
46 113 
46 121 
46 132 
46 136 
46 150 
46 151 
46 160 
46 166 
46 169 
46 181 
46 186 
46 196 
46 197 
46 211 
46 223 
47 48 
47 49 
47 50 
47 51 
47 52 
47 53 
47 54 
47 55 
47 56 
47 57 
47 58 
47 59 
47 60 
47 62 
47 66 
47 77 
47 90 
47 92 
47 94 
47 107 
47 116 
47 122 
47 130 
47 137 
47 148 
47 151 
47 152 
47 167 
47 179 
47 182 
47 187 
47 197 
47 198 
47 212 
47 222 
48 49 
48 50 
48 51 
48 52 
48 53 
48 54 
48 55 
48 56 
48 57 
48 58 
48 59 
48 60 
48 62 
48 63 
48 78 
48 81 
48 93 
48 105 
48 108 
48 117 
48 123 
48 127 
48 138 
48 149 
48 153 
48 161 
48 168 
48 178 
48 183 
48 189 
48 198 
48 203 
48 213 
48 220 
49 50 
49 51 
49 52 
49 53 
49 54 
49 55 
49 56 
49 57 
49 58 
49 59 
49 60 
49 64 
49 75 
49 79 
49 80 
49 91 
49 94 
49 109 
49 114 
49 124 
49 134 
49 139 
49 145 
49 154 
49 157 
49 168 
49 169 
49 184 
49 188 
49 199 
49 208 
49 214 
49 221 
50 51 
50 52 
50 53 
50 54 
50 55 
50 56 
50 57 
50 58 
50 59 
50 60 
50 63 
50 65 
50 80 
50 86 
50 95 
50 96 
50 110 
50 120 
50 122 
50 125 
50 140 
50 147 
50 155 
50 159 
50 170 
50 173 
50 185 
50 193 
50 200 
50 202 
50 211 
50 215 
51 52 
51 53 
51 54 
51 55 
51 56 
51 57 
51 58 
51 59 
51 60 
51 66 
51 72 
51 79 
51 81 
51 95 
51 96 
51 107 
51 111 
51 126 
51 135 
51 136 
51 141 
51 156 
51 164 
51 171 
51 175 
51 183 
51 186 
51 201 
51 206 
51 216 
51 217 
52 53 
52 54 
52 55 
52 56 
52 57 
52 58 
52 59 
52 60 
52 64 
52 67 
52 76 
52 82 
52 97 
52 101 
52 112 
52 118 
52 127 
52 128 
52 138 
52 142 
52 156 
52 157 
52 170 
52 172 
52 187 
52 194 
52 202 
52 204 
52 212 
52 217 
53 54 
53 55 
53 56 
53 57 
53 58 
53 59 
53 60 
53 67 
53 68 
53 83 
53 85 
53 98 
53 102 
53 109 
53 113 
53 128 
53 133 
53 137 
53 143 
53 155 
53 158 
53 173 
53 180 
53 181 
53 188 
53 201 
53 203 
53 218 
53 224 
54 55 
54 56 
54 57 
54 58 
54 59 
54 60 
54 69 
54 74 
54 83 
54 84 
54 97 
54 99 
54 111 
54 114 
54 124 
54 129 
54 144 
54 146 
54 153 
54 159 
54 167 
54 174 
54 189 
54 190 
54 204 
54 210 
54 215 
54 219 
55 56 
55 57 
55 58 
55 59 
55 60 
55 69 
55 70 
55 77 
55 85 
55 100 
55 103 
55 110 
55 115 
55 123 
55 130 
55 139 
55 145 
55 160 
55 162 
55 166 
55 175 
55 190 
55 195 
55 205 
55 209 
55 218 
55 220 
56 57 
56 58 
56 59 
56 60 
56 71 
56 73 
56 86 
56 87 
56 101 
56 104 
56 115 
56 116 
56 129 
56 131 
56 143 
56 146 
56 152 
56 161 
56 171 
56 176 
56 185 
56 191 
56 199 
56 206 
56 213 
56 221 
57 58 
57 59 
57 60 
57 70 
57 72 
57 84 
57 87 
57 98 
57 102 
57 108 
57 117 
57 126 
57 132 
57 142 
57 147 
57 154 
57 162 
57 176 
57 177 
57 182 
57 192 
57 196 
57 207 
57 222 
57 225 
58 59 
58 60 
58 68 
58 73 
58 88 
58 89 
58 100 
58 103 
58 106 
58 118 
58 125 
58 133 
58 144 
58 148 
58 163 
58 165 
58 172 
58 178 
58 191 
58 193 
58 207 
58 208 
58 216 
58 223 
59 60 
59 61 
59 74 
59 88 
59 89 
59 93 
59 104 
59 112 
59 119 
59 131 
59 134 
59 141 
59 149 
59 158 
59 164 
59 174 
59 179 
59 192 
59 194 
59 200 
59 209 
59 214 
59 224 
60 71 
60 75 
60 78 
60 90 
60 92 
60 105 
60 119 
60 120 
60 121 
60 135 
60 140 
60 150 
60 163 
60 165 
60 177 
60 180 
60 184 
60 195 
60 205 
60 210 
60 219 
60 225 
61 62 
61 63 
61 64 
61 65 
61 66 
61 67 
61 68 
61 69 
61 70 
61 71 
61 72 
61 73 
61 74 
61 75 
61 76 
61 88 
61 91 
61 93 
61 106 
61 112 
61 121 
61 131 
61 136 
61 141 
61 151 
61 158 
61 166 
61 174 
61 181 
61 192 
61 196 
61 200 
61 211 
61 214 
62 63 
62 64 
62 65 
62 66 
62 67 
62 68 
62 69 
62 70 
62 71 
62 72 
62 73 
62 74 
62 75 
62 77 
62 81 
62 92 
62 105 
62 107 
62 117 
62 122 
62 127 
62 137 
62 149 
62 152 
62 161 
62 167 
62 178 
62 182 
62 189 
62 197 
62 203 
62 212 
62 220 
63 64 
63 65 
63 66 
63 67 
63 68 
63 69 
63 70 
63 71 
63 72 
63 73 
63 74 
63 75 
63 78 
63 86 
63 93 
63 96 
63 108 
63 120 
63 122 
63 123 
63 138 
63 147 
63 153 
63 159 
63 168 
63 173 
63 183 
63 193 
63 198 
63 202 
63 211 
63 213 
64 65 
64 66 
64 67 
64 68 
64 69 
64 70 
64 71 
64 72 
64 73 
64 74 
64 75 
64 76 
64 79 
64 94 
64 101 
64 109 
64 118 
64 124 
64 128 
64 138 
64 139 
64 154 
64 156 
64 169 
64 170 
64 184 
64 194 
64 199 
64 204 
64 212 
64 214 
65 66 
65 67 
65 68 
65 69 
65 70 
65 71 
65 72 
65 73 
65 74 
65 75 
65 80 
65 82 
65 95 
65 99 
65 110 
65 113 
65 125 
65 132 
65 140 
65 150 
65 155 
65 160 
65 169 
65 170 
65 185 
65 186 
65 197 
65 200 
65 215 
65 223 
66 67 
66 68 
66 69 
66 70 
66 71 
66 72 
66 73 
66 74 
66 75 
66 81 
66 90 
66 94 
66 96 
66 111 
66 116 
66 126 
66 130 
66 141 
66 148 
66 151 
66 156 
66 171 
66 179 
66 186 
66 187 
66 198 
66 201 
66 216 
66 222 
67 68 
67 69 
67 70 
67 71 
67 72 
67 73 
67 74 
67 75 
67 82 
67 85 
67 97 
67 102 
67 109 
67 112 
67 127 
67 133 
67 137 
67 142 
67 155 
67 157 
67 172 
67 180 
67 181 
67 187 
67 201 
67 202 
67 217 
67 224 
68 69 
68 70 
68 71 
68 72 
68 73 
68 74 
68 75 
68 83 
68 89 
68 98 
68 100 
68 106 
68 113 
68 125 
68 128 
68 143 
68 144 
68 158 
68 165 
68 172 
68 173 
68 188 
68 191 
68 203 
68 207 
68 216 
68 218 
69 70 
69 71 
69 72 
69 73 
69 74 
69 75 
69 77 
69 84 
69 99 
69 103 
69 110 
69 114 
69 123 
69 129 
69 139 
69 144 
69 159 
69 162 
69 166 
69 174 
69 189 
69 195 
69 204 
69 209 
69 218 
69 219 
70 71 
70 72 
70 73 
70 74 
70 75 
70 84 
70 85 
70 98 
70 100 
70 108 
70 115 
70 126 
70 130 
70 142 
70 145 
70 154 
70 160 
70 175 
70 176 
70 182 
70 190 
70 196 
70 205 
70 220 
70 225 
71 72 
71 73 
71 74 
71 75 
71 78 
71 86 
71 92 
71 101 
71 116 
71 119 
71 121 
71 131 
71 140 
71 146 
71 161 
71 163 
71 176 
71 177 
71 184 
71 191 
71 205 
71 206 
71 219 
71 221 
72 73 
72 74 
72 75 
72 79 
72 87 
72 95 
72 102 
72 107 
72 117 
72 132 
72 135 
72 136 
72 147 
72 162 
72 164 
72 175 
72 177 
72 183 
72 192 
72 206 
72 207 
72 217 
72 222 
73 74 
73 75 
73 87 
73 88 
73 103 
73 104 
73 115 
73 118 
73 129 
73 133 
73 143 
73 148 
73 152 
73 163 
73 171 
73 178 
73 185 
73 193 
73 199 
73 208 
73 213 
73 223 
74 75 
74 83 
74 89 
74 97 
74 104 
74 111 
74 119 
74 124 
74 134 
74 146 
74 149 
74 153 
74 164 
74 167 
74 179 
74 190 
74 194 
74 209 
74 210 
74 215 
74 224 
75 80 
75 90 
75 91 
75 105 
75 114 
75 120 
75 134 
75 135 
75 145 
75 150 
75 157 
75 165 
75 168 
75 180 
75 188 
75 195 
75 208 
75 210 
75 221 
75 225 
76 77 
76 78 
76 79 
76 80 
76 81 
76 82 
76 83 
76 84 
76 85 
76 86 
76 87 
76 88 
76 89 
76 90 
76 91 
76 101 
76 106 
76 118 
76 121 
76 128 
76 136 
76 138 
76 151 
76 156 
76 166 
76 170 
76 181 
76 194 
76 196 
76 204 
76 211 
76 212 
77 78 
77 79 
77 80 
77 81 
77 82 
77 83 
77 84 
77 85 
77 86 
77 87 
77 88 
77 89 
77 90 
77 92 
77 103 
77 107 
77 110 
77 122 
77 123 
77 137 
77 139 
77 152 
77 162 
77 166 
77 167 
77 182 
77 195 
77 197 
77 209 
77 212 
77 218 
78 79 
78 80 
78 81 
78 82 
78 83 
78 84 
78 85 
78 86 
78 87 
78 88 
78 89 
78 90 
78 92 
78 93 
78 108 
78 119 
78 121 
78 123 
78 138 
78 140 
78 153 
78 163 
78 168 
78 177 
78 183 
78 184 
78 198 
78 205 
78 213 
78 219 
79 80 
79 81 
79 82 
79 83 
79 84 
79 85 
79 86 
79 87 
79 88 
79 89 
79 90 
79 94 
79 95 
79 107 
79 109 
79 124 
79 135 
79 136 
79 139 
79 154 
79 164 
79 169 
79 175 
79 183 
79 184 
79 199 
79 206 
79 214 
79 217 
80 81 
80 82 
80 83 
80 84 
80 85 
80 86 
80 87 
80 88 
80 89 
80 90 
80 91 
80 95 
80 110 
80 114 
80 125 
80 134 
80 140 
80 145 
80 155 
80 157 
80 168 
80 170 
80 185 
80 188 
80 200 
80 208 
80 215 
80 221 
81 82 
81 83 
81 84 
81 85 
81 86 
81 87 
81 88 
81 89 
81 90 
81 96 
81 105 
81 111 
81 117 
81 126 
81 127 
81 141 
81 149 
81 156 
81 161 
81 171 
81 178 
81 186 
81 189 
81 201 
81 203 
81 216 
81 220 
82 83 
82 84 
82 85 
82 86 
82 87 
82 88 
82 89 
82 90 
82 97 
82 99 
82 112 
82 113 
82 127 
82 132 
82 142 
82 150 
82 157 
82 160 
82 169 
82 172 
82 186 
82 187 
82 197 
82 202 
82 217 
82 223 
83 84 
83 85 
83 86 
83 87 
83 88 
83 89 
83 90 
83 97 
83 98 
83 111 
83 113 
83 124 
83 128 
83 143 
83 146 
83 153 
83 158 
83 167 
83 173 
83 188 
83 190 
83 203 
83 210 
83 215 
83 218 
84 85 
84 86 
84 87 
84 88 
84 89 
84 90 
84 98 
84 99 
84 108 
84 114 
84 126 
84 129 
84 142 
84 144 
84 154 
84 159 
84 174 
84 176 
84 182 
84 189 
84 196 
84 204 
84 219 
84 225 
85 86 
85 87 
85 88 
85 89 
85 90 
85 100 
85 102 
85 109 
85 115 
85 130 
85 133 
85 137 
85 145 
85 155 
85 160 
85 175 
85 180 
85 181 
85 190 
85 201 
85 205 
85 220 
85 224 
86 87 
86 88 
86 89 
86 90 
86 96 
86 101 
86 116 
86 120 
86 122 
86 131 
86 146 
86 147 
86 159 
86 161 
86 173 
86 176 
86 191 
86 193 
86 202 
86 206 
86 211 
86 221 
87 88 
87 89 
87 90 
87 102 
87 104 
87 115 
87 117 
87 129 
87 132 
87 143 
87 147 
87 152 
87 162 
87 171 
87 177 
87 185 
87 192 
87 199 
87 207 
87 213 
87 222 
88 89 
88 90 
88 93 
88 103 
88 112 
88 118 
88 131 
88 133 
88 141 
88 148 
88 158 
88 163 
88 174 
88 178 
88 192 
88 193 
88 200 
88 208 
88 214 
88 223 
89 90 
89 100 
89 104 
89 106 
89 119 
89 125 
89 134 
89 144 
89 149 
89 164 
89 165 
89 172 
89 179 
89 191 
89 194 
89 207 
89 209 
89 216 
89 224 
90 94 
90 105 
90 116 
90 120 
90 130 
90 135 
90 148 
90 150 
90 151 
90 165 
90 179 
90 180 
90 187 
90 195 
90 198 
90 210 
90 222 
90 225 
91 92 
91 93 
91 94 
91 95 
91 96 
91 97 
91 98 
91 99 
91 100 
91 101 
91 102 
91 103 
91 104 
91 105 
91 106 
91 114 
91 121 
91 134 
91 136 
91 145 
91 151 
91 157 
91 166 
91 168 
91 181 
91 188 
91 196 
91 208 
91 211 
91 221 
92 93 
92 94 
92 95 
92 96 
92 97 
92 98 
92 99 
92 100 
92 101 
92 102 
92 103 
92 104 
92 105 
92 107 
92 119 
92 121 
92 122 
92 137 
92 140 
92 152 
92 163 
92 167 
92 177 
92 182 
92 184 
92 197 
92 205 
92 212 
92 219 
93 94 
93 95 
93 96 
93 97 
93 98 
93 99 
93 100 
93 101 
93 102 
93 103 
93 104 
93 105 
93 108 
93 112 
93 123 
93 131 
93 138 
93 141 
93 153 
93 158 
93 168 
93 174 
93 183 
93 192 
93 198 
93 200 
93 213 
93 214 
94 95 
94 96 
94 97 
94 98 
94 99 
94 100 
94 101 
94 102 
94 103 
94 104 
94 105 
94 109 
94 116 
94 124 
94 130 
94 139 
94 148 
94 151 
94 154 
94 169 
94 179 
94 184 
94 187 
94 198 
94 199 
94 214 
94 222 
95 96 
95 97 
95 98 
95 99 
95 100 
95 101 
95 102 
95 103 
95 104 
95 105 
95 107 
95 110 
95 125 
95 135 
95 136 
95 140 
95 155 
95 164 
95 170 
95 175 
95 183 
95 185 
95 200 
95 206 
95 215 
95 217 
96 97 
96 98 
96 99 
96 100 
96 101 
96 102 
96 103 
96 104 
96 105 
96 111 
96 120 
96 122 
96 126 
96 141 
96 147 
96 156 
96 159 
96 171 
96 173 
96 186 
96 193 
96 201 
96 202 
96 211 
96 216 
97 98 
97 99 
97 100 
97 101 
97 102 
97 103 
97 104 
97 105 
97 111 
97 112 
97 124 
97 127 
97 142 
97 146 
97 153 
97 157 
97 167 
97 172 
97 187 
97 190 
97 202 
97 210 
97 215 
97 217 
98 99 
98 100 
98 101 
98 102 
98 103 
98 104 
98 105 
98 108 
98 113 
98 126 
98 128 
98 142 
98 143 
98 154 
98 158 
98 173 
98 176 
98 182 
98 188 
98 196 
98 203 
98 218 
98 225 
99 100 
99 101 
99 102 
99 103 
99 104 
99 105 
99 113 
99 114 
99 129 
99 132 
99 144 
99 150 
99 159 
99 160 
99 169 
99 174 
99 186 
99 189 
99 197 
99 204 
99 219 
99 223 
100 101 
100 102 
100 103 
100 104 
100 105 
100 106 
100 115 
100 125 
100 130 
100 144 
100 145 
100 160 
100 165 
100 172 
100 175 
100 190 
100 191 
100 205 
100 207 
100 216 
100 220 
101 102 
101 103 
101 104 
101 105 
101 116 
101 118 
101 128 
101 131 
101 138 
101 146 
101 156 
101 161 
101 170 
101 176 
101 191 
101 194 
101 204 
101 206 
101 212 
101 221 
102 103 
102 104 
102 105 
102 109 
102 117 
102 132 
102 133 
102 137 
102 147 
102 155 
102 162 
102 177 
102 180 
102 181 
102 192 
102 201 
102 207 
102 222 
102 224 
103 104 
103 105 
103 110 
103 118 
103 123 
103 133 
103 139 
103 148 
103 162 
103 163 
103 166 
103 178 
103 193 
103 195 
103 208 
103 209 
103 218 
103 223 
104 105 
104 115 
104 119 
104 129 
104 134 
104 143 
104 149 
104 152 
104 164 
104 171 
104 179 
104 185 
104 194 
104 199 
104 209 
104 213 
104 224 
105 117 
105 120 
105 127 
105 135 
105 149 
105 150 
105 161 
105 165 
105 178 
105 180 
105 189 
105 195 
105 203 
105 210 
105 220 
105 225 
106 107 
106 108 
106 109 
106 110 
106 111 
106 112 
106 113 
106 114 
106 115 
106 116 
106 117 
106 118 
106 119 
106 120 
106 121 
106 125 
106 136 
106 144 
106 151 
106 165 
106 166 
106 172 
106 181 
106 191 
106 196 
106 207 
106 211 
106 216 
107 108 
107 109 
107 110 
107 111 
107 112 
107 113 
107 114 
107 115 
107 116 
107 117 
107 118 
107 119 
107 120 
107 122 
107 135 
107 136 
107 137 
107 152 
107 164 
107 167 
107 175 
107 182 
107 183 
107 197 
107 206 
107 212 
107 217 
108 109 
108 110 
108 111 
108 112 
108 113 
108 114 
108 115 
108 116 
108 117 
108 118 
108 119 
108 120 
108 123 
108 126 
108 138 
108 142 
108 153 
108 154 
108 168 
108 176 
108 182 
108 183 
108 196 
108 198 
108 213 
108 225 
109 110 
109 111 
109 112 
109 113 
109 114 
109 115 
109 116 
109 117 
109 118 
109 119 
109 120 
109 124 
109 133 
109 137 
109 139 
109 154 
109 155 
109 169 
109 180 
109 181 
109 184 
109 199 
109 201 
109 214 
109 224 
110 111 
110 112 
110 113 
110 114 
110 115 
110 116 
110 117 
110 118 
110 119 
110 120 
110 123 
110 125 
110 139 
110 140 
110 155 
110 162 
110 166 
110 170 
110 185 
110 195 
110 200 
110 209 
110 215 
110 218 
111 112 
111 113 
111 114 
111 115 
111 116 
111 117 
111 118 
111 119 
111 120 
111 124 
111 126 
111 141 
111 146 
111 153 
111 156 
111 167 
111 171 
111 186 
111 190 
111 201 
111 210 
111 215 
111 216 
112 113 
112 114 
112 115 
112 116 
112 117 
112 118 
112 119 
112 120 
112 127 
112 131 
112 141 
112 142 
112 157 
112 158 
112 172 
112 174 
112 187 
112 192 
112 200 
112 202 
112 214 
112 217 
113 114 
113 115 
113 116 
113 117 
113 118 
113 119 
113 120 
113 128 
113 132 
113 143 
113 150 
113 158 
113 160 
113 169 
113 173 
113 186 
113 188 
113 197 
113 203 
113 218 
113 223 
114 115 
114 116 
114 117 
114 118 
114 119 
114 120 
114 129 
114 134 
114 144 
114 145 
114 157 
114 159 
114 168 
114 174 
114 188 
114 189 
114 204 
114 208 
114 219 
114 221 
115 116 
115 117 
115 118 
115 119 
115 120 
115 129 
115 130 
115 143 
115 145 
115 152 
115 160 
115 171 
115 175 
115 185 
115 190 
115 199 
115 205 
115 213 
115 220 
116 117 
116 118 
116 119 
116 120 
116 130 
116 131 
116 146 
116 148 
116 151 
116 161 
116 176 
116 179 
116 187 
116 191 
116 198 
116 206 
116 221 
116 222 
117 118 
117 119 
117 120 
117 127 
117 132 
117 147 
117 149 
117 161 
117 162 
117 177 
117 178 
117 189 
117 192 
117 203 
117 207 
117 220 
117 222 
118 119 
118 120 
118 128 
118 133 
118 138 
118 148 
118 156 
118 163 
118 170 
118 178 
118 193 
118 194 
118 204 
118 208 
118 212 
118 223 
119 120 
119 121 
119 134 
119 140 
119 149 
119 163 
119 164 
119 177 
119 179 
119 184 
119 194 
119 205 
119 209 
119 219 
119 224 
120 122 
120 135 
120 147 
120 150 
120 159 
120 165 
120 173 
120 180 
120 193 
120 195 
120 202 
120 210 
120 211 
120 225 
121 122 
121 123 
121 124 
121 125 
121 126 
121 127 
121 128 
121 129 
121 130 
121 131 
121 132 
121 133 
121 134 
121 135 
121 136 
121 140 
121 151 
121 163 
121 166 
121 177 
121 181 
121 184 
121 196 
121 205 
121 211 
121 219 
122 123 
122 124 
122 125 
122 126 
122 127 
122 128 
122 129 
122 130 
122 131 
122 132 
122 133 
122 134 
122 135 
122 137 
122 147 
122 152 
122 159 
122 167 
122 173 
122 182 
122 193 
122 197 
122 202 
122 211 
122 212 
123 124 
123 125 
123 126 
123 127 
123 128 
123 129 
123 130 
123 131 
123 132 
123 133 
123 134 
123 135 
123 138 
123 139 
123 153 
123 162 
123 166 
123 168 
123 183 
123 195 
123 198 
123 209 
123 213 
123 218 
124 125 
124 126 
124 127 
124 128 
124 129 
124 130 
124 131 
124 132 
124 133 
124 134 
124 135 
124 139 
124 146 
124 153 
124 154 
124 167 
124 169 
124 184 
124 190 
124 199 
124 210 
124 214 
124 215 
125 126 
125 127 
125 128 
125 129 
125 130 
125 131 
125 132 
125 133 
125 134 
125 135 
125 140 
125 144 
125 155 
125 165 
125 170 
125 172 
125 185 
125 191 
125 200 
125 207 
125 215 
125 216 
126 127 
126 128 
126 129 
126 130 
126 131 
126 132 
126 133 
126 134 
126 135 
126 141 
126 142 
126 154 
126 156 
126 171 
126 176 
126 182 
126 186 
126 196 
126 201 
126 216 
126 225 
127 128 
127 129 
127 130 
127 131 
127 132 
127 133 
127 134 
127 135 
127 142 
127 149 
127 157 
127 161 
127 172 
127 178 
127 187 
127 189 
127 202 
127 203 
127 217 
127 220 
128 129 
128 130 
128 131 
128 132 
128 133 
128 134 
128 135 
128 138 
128 143 
128 156 
128 158 
128 170 
128 173 
128 188 
128 194 
128 203 
128 204 
128 212 
128 218 
129 130 
129 131 
129 132 
129 133 
129 134 
129 135 
129 143 
129 144 
129 152 
129 159 
129 171 
129 174 
129 185 
129 189 
129 199 
129 204 
129 213 
129 219 
130 131 
130 132 
130 133 
130 134 
130 135 
130 145 
130 148 
130 151 
130 160 
130 175 
130 179 
130 187 
130 190 
130 198 
130 205 
130 220 
130 222 
131 132 
131 133 
131 134 
131 135 
131 141 
131 146 
131 158 
131 161 
131 174 
131 176 
131 191 
131 192 
131 200 
131 206 
131 214 
131 221 
132 133 
132 134 
132 135 
132 147 
132 150 
132 160 
132 162 
132 169 
132 177 
132 186 
132 192 
132 197 
132 207 
132 222 
132 223 
133 134 
133 135 
133 137 
133 148 
133 155 
133 163 
133 178 
133 180 
133 181 
133 193 
133 201 
133 208 
133 223 
133 224 
134 135 
134 145 
134 149 
134 157 
134 164 
134 168 
134 179 
134 188 
134 194 
134 208 
134 209 
134 221 
134 224 
135 136 
135 150 
135 164 
135 165 
135 175 
135 180 
135 183 
135 195 
135 206 
135 210 
135 217 
135 225 
136 137 
136 138 
136 139 
136 140 
136 141 
136 142 
136 143 
136 144 
136 145 
136 146 
136 147 
136 148 
136 149 
136 150 
136 151 
136 164 
136 166 
136 175 
136 181 
136 183 
136 196 
136 206 
136 211 
136 217 
137 138 
137 139 
137 140 
137 141 
137 142 
137 143 
137 144 
137 145 
137 146 
137 147 
137 148 
137 149 
137 150 
137 152 
137 155 
137 167 
137 180 
137 181 
137 182 
137 197 
137 201 
137 212 
137 224 
138 139 
138 140 
138 141 
138 142 
138 143 
138 144 
138 145 
138 146 
138 147 
138 148 
138 149 
138 150 
138 153 
138 156 
138 168 
138 170 
138 183 
138 194 
138 198 
138 204 
138 212 
138 213 
139 140 
139 141 
139 142 
139 143 
139 144 
139 145 
139 146 
139 147 
139 148 
139 149 
139 150 
139 154 
139 162 
139 166 
139 169 
139 184 
139 195 
139 199 
139 209 
139 214 
139 218 
140 141 
140 142 
140 143 
140 144 
140 145 
140 146 
140 147 
140 148 
140 149 
140 150 
140 155 
140 163 
140 170 
140 177 
140 184 
140 185 
140 200 
140 205 
140 215 
140 219 
141 142 
141 143 
141 144 
141 145 
141 146 
141 147 
141 148 
141 149 
141 150 
141 156 
141 158 
141 171 
141 174 
141 186 
141 192 
141 200 
141 201 
141 214 
141 216 
142 143 
142 144 
142 145 
142 146 
142 147 
142 148 
142 149 
142 150 
142 154 
142 157 
142 172 
142 176 
142 182 
142 187 
142 196 
142 202 
142 217 
142 225 
143 144 
143 145 
143 146 
143 147 
143 148 
143 149 
143 150 
143 152 
143 158 
143 171 
143 173 
143 185 
143 188 
143 199 
143 203 
143 213 
143 218 
144 145 
144 146 
144 147 
144 148 
144 149 
144 150 
144 159 
144 165 
144 172 
144 174 
144 189 
144 191 
144 204 
144 207 
144 216 
144 219 
145 146 
145 147 
145 148 
145 149 
145 150 
145 157 
145 160 
145 168 
145 175 
145 188 
145 190 
145 205 
145 208 
145 220 
145 221 
146 147 
146 148 
146 149 
146 150 
146 153 
146 161 
146 167 
146 176 
146 190 
146 191 
146 206 
146 210 
146 215 
146 221 
147 148 
147 149 
147 150 
147 159 
147 162 
147 173 
147 177 
147 192 
147 193 
147 202 
147 207 
147 211 
147 222 
148 149 
148 150 
148 151 
148 163 
148 178 
148 179 
148 187 
148 193 
148 198 
148 208 
148 222 
148 223 
149 150 
149 161 
149 164 
149 178 
149 179 
149 189 
149 194 
149 203 
149 209 
149 220 
149 224 
150 160 
150 165 
150 169 
150 180 
150 186 
150 195 
150 197 
150 210 
150 223 
150 225 
151 152 
151 153 
151 154 
151 155 
151 156 
151 157 
151 158 
151 159 
151 160 
151 161 
151 162 
151 163 
151 164 
151 165 
151 166 
151 179 
151 181 
151 187 
151 196 
151 198 
151 211 
151 222 
152 153 
152 154 
152 155 
152 156 
152 157 
152 158 
152 159 
152 160 
152 161 
152 162 
152 163 
152 164 
152 165 
152 167 
152 171 
152 182 
152 185 
152 197 
152 199 
152 212 
152 213 
153 154 
153 155 
153 156 
153 157 
153 158 
153 159 
153 160 
153 161 
153 162 
153 163 
153 164 
153 165 
153 167 
153 168 
153 183 
153 190 
153 198 
153 210 
153 213 
153 215 
154 155 
154 156 
154 157 
154 158 
154 159 
154 160 
154 161 
154 162 
154 163 
154 164 
154 165 
154 169 
154 176 
154 182 
154 184 
154 196 
154 199 
154 214 
154 225 
155 156 
155 157 
155 158 
155 159 
155 160 
155 161 
155 162 
155 163 
155 164 
155 165 
155 170 
155 180 
155 181 
155 185 
155 200 
155 201 
155 215 
155 224 
156 157 
156 158 
156 159 
156 160 
156 161 
156 162 
156 163 
156 164 
156 165 
156 170 
156 171 
156 186 
156 194 
156 201 
156 204 
156 212 
156 216 
157 158 
157 159 
157 160 
157 161 
157 162 
157 163 
157 164 
157 165 
157 168 
157 172 
157 187 
157 188 
157 202 
157 208 
157 217 
157 221 
158 159 
158 160 
158 161 
158 162 
158 163 
158 164 
158 165 
158 173 
158 174 
158 188 
158 192 
158 200 
158 203 
158 214 
158 218 
159 160 
159 161 
159 162 
159 163 
159 164 
159 165 
159 173 
159 174 
159 189 
159 193 
159 202 
159 204 
159 211 
159 219 
160 161 
160 162 
160 163 
160 164 
160 165 
160 169 
160 175 
160 186 
160 190 
160 197 
160 205 
160 220 
160 223 
161 162 
161 163 
161 164 
161 165 
161 176 
161 178 
161 189 
161 191 
161 203 
161 206 
161 220 
161 221 
162 163 
162 164 
162 165 
162 166 
162 177 
162 192 
162 195 
162 207 
162 209 
162 218 
162 222 
163 164 
163 165 
163 177 
163 178 
163 184 
163 193 
163 205 
163 208 
163 219 
163 223 
164 165 
164 175 
164 179 
164 183 
164 194 
164 206 
164 209 
164 217 
164 224 
165 172 
165 180 
165 191 
165 195 
165 207 
165 210 
165 216 
165 225 
166 167 
166 168 
166 169 
166 170 
166 171 
166 172 
166 173 
166 174 
166 175 
166 176 
166 177 
166 178 
166 179 
166 180 
166 181 
166 195 
166 196 
166 209 
166 211 
166 218 
167 168 
167 169 
167 170 
167 171 
167 172 
167 173 
167 174 
167 175 
167 176 
167 177 
167 178 
167 179 
167 180 
167 182 
167 190 
167 197 
167 210 
167 212 
167 215 
168 169 
168 170 
168 171 
168 172 
168 173 
168 174 
168 175 
168 176 
168 177 
168 178 
168 179 
168 180 
168 183 
168 188 
168 198 
168 208 
168 213 
168 221 
169 170 
169 171 
169 172 
169 173 
169 174 
169 175 
169 176 
169 177 
169 178 
169 179 
169 180 
169 184 
169 186 
169 197 
169 199 
169 214 
169 223 
170 171 
170 172 
170 173 
170 174 
170 175 
170 176 
170 177 
170 178 
170 179 
170 180 
170 185 
170 194 
170 200 
170 204 
170 212 
170 215 
171 172 
171 173 
171 174 
171 175 
171 176 
171 177 
171 178 
171 179 
171 180 
171 185 
171 186 
171 199 
171 201 
171 213 
171 216 
172 173 
172 174 
172 175 
172 176 
172 177 
172 178 
172 179 
172 180 
172 187 
172 191 
172 202 
172 207 
172 216 
172 217 
173 174 
173 175 
173 176 
173 177 
173 178 
173 179 
173 180 
173 188 
173 193 
173 202 
173 203 
173 211 
173 218 
174 175 
174 176 
174 177 
174 178 
174 179 
174 180 
174 189 
174 192 
174 200 
174 204 
174 214 
174 219 
175 176 
175 177 
175 178 
175 179 
175 180 
175 183 
175 190 
175 205 
175 206 
175 217 
175 220 
176 177 
176 178 
176 179 
176 180 
176 182 
176 191 
176 196 
176 206 
176 221 
176 225 
177 178 
177 179 
177 180 
177 184 
177 192 
177 205 
177 207 
177 219 
177 222 
178 179 
178 180 
178 189 
178 193 
178 203 
178 208 
178 220 
178 223 
179 180 
179 187 
179 194 
179 198 
179 209 
179 222 
179 224 
180 181 
180 195 
180 201 
180 210 
180 224 
180 225 
181 182 
181 183 
181 184 
181 185 
181 186 
181 187 
181 188 
181 189 
181 190 
181 191 
181 192 
181 193 
181 194 
181 195 
181 196 
181 201 
181 211 
181 224 
182 183 
182 184 
182 185 
182 186 
182 187 
182 188 
182 189 
182 190 
182 191 
182 192 
182 193 
182 194 
182 195 
182 196 
182 197 
182 212 
182 225 
183 184 
183 185 
183 186 
183 187 
183 188 
183 189 
183 190 
183 191 
183 192 
183 193 
183 194 
183 195 
183 198 
183 206 
183 213 
183 217 
184 185 
184 186 
184 187 
184 188 
184 189 
184 190 
184 191 
184 192 
184 193 
184 194 
184 195 
184 199 
184 205 
184 214 
184 219 
185 186 
185 187 
185 188 
185 189 
185 190 
185 191 
185 192 
185 193 
185 194 
185 195 
185 199 
185 200 
185 213 
185 215 
186 187 
186 188 
186 189 
186 190 
186 191 
186 192 
186 193 
186 194 
186 195 
186 197 
186 201 
186 216 
186 223 
187 188 
187 189 
187 190 
187 191 
187 192 
187 193 
187 194 
187 195 
187 198 
187 202 
187 217 
187 222 
188 189 
188 190 
188 191 
188 192 
188 193 
188 194 
188 195 
188 203 
188 208 
188 218 
188 221 
189 190 
189 191 
189 192 
189 193 
189 194 
189 195 
189 203 
189 204 
189 219 
189 220 
190 191 
190 192 
190 193 
190 194 
190 195 
190 205 
190 210 
190 215 
190 220 
191 192 
191 193 
191 194 
191 195 
191 206 
191 207 
191 216 
191 221 
192 193 
192 194 
192 195 
192 200 
192 207 
192 214 
192 222 
193 194 
193 195 
193 202 
193 208 
193 211 
193 223 
194 195 
194 204 
194 209 
194 212 
194 224 
195 209 
195 210 
195 218 
195 225 
196 197 
196 198 
196 199 
196 200 
196 201 
196 202 
196 203 
196 204 
196 205 
196 206 
196 207 
196 208 
196 209 
196 210 
196 211 
196 225 
197 198 
197 199 
197 200 
197 201 
197 202 
197 203 
197 204 
197 205 
197 206 
197 207 
197 208 
197 209 
197 210 
197 212 
197 223 
198 199 
198 200 
198 201 
198 202 
198 203 
198 204 
198 205 
198 206 
198 207 
198 208 
198 209 
198 210 
198 213 
198 222 
199 200 
199 201 
199 202 
199 203 
199 204 
199 205 
199 206 
199 207 
199 208 
199 209 
199 210 
199 213 
199 214 
200 201 
200 202 
200 203 
200 204 
200 205 
200 206 
200 207 
200 208 
200 209 
200 210 
200 214 
200 215 
201 202 
201 203 
201 204 
201 205 
201 206 
201 207 
201 208 
201 209 
201 210 
201 216 
201 224 
202 203 
202 204 
202 205 
202 206 
202 207 
202 208 
202 209 
202 210 
202 211 
202 217 
203 204 
203 205 
203 206 
203 207 
203 208 
203 209 
203 210 
203 218 
203 220 
204 205 
204 206 
204 207 
204 208 
204 209 
204 210 
204 212 
204 219 
205 206 
205 207 
205 208 
205 209 
205 210 
205 219 
205 220 
206 207 
206 208 
206 209 
206 210 
206 217 
206 221 
207 208 
207 209 
207 210 
207 216 
207 222 
208 209 
208 210 
208 221 
208 223 
209 210 
209 218 
209 224 
210 215 
210 225 
211 212 
211 213 
211 214 
211 215 
211 216 
211 217 
211 218 
211 219 
211 220 
211 221 
211 222 
211 223 
211 224 
211 225 
212 213 
212 214 
212 215 
212 216 
212 217 
212 218 
212 219 
212 220 
212 221 
212 222 
212 223 
212 224 
212 225 
213 214 
213 215 
213 216 
213 217 
213 218 
213 219 
213 220 
213 221 
213 222 
213 223 
213 224 
213 225 
214 215 
214 216 
214 217 
214 218 
214 219 
214 220 
214 221 
214 222 
214 223 
214 224 
214 225 
215 216 
215 217 
215 218 
215 219 
215 220 
215 221 
215 222 
215 223 
215 224 
215 225 
216 217 
216 218 
216 219 
216 220 
216 221 
216 222 
216 223 
216 224 
216 225 
217 218 
217 219 
217 220 
217 221 
217 222 
217 223 
217 224 
217 225 
218 219 
218 220 
218 221 
218 222 
218 223 
218 224 
218 225 
219 220 
219 221 
219 222 
219 223 
219 224 
219 225 
220 221 
220 222 
220 223 
220 224 
220 225 
221 222 
221 223 
221 224 
221 225 
222 223 
222 224 
222 225 
223 224 
223 225 
224 225 
